proyfinal/src/viki/013/experimentInOfficeAgust.take6.output/ec0e6211-07a0-4067-ae61-26b538f97b7d.als.dat
{'cnf.clauses': '118081',
 'cnf.totvars': '69608',
 'conflict literals': '1',
 'conflicts': '2',
 'decisions': '424',
 'memused.mb': '15.36',
 'outcome': 'UNSAT',
 'propagations': '19103',
 'restarts': '1',
 'solver.msecs': 33,
 'task.msecs': 82}
