proyfinal/src/viki/013/experimentInOfficeAgust.take6.output/ec0e6211-07a0-4067-ae61-26b538f97b7d.als.out
Reading from standard input... Use '--help' for help.
============================[ Problem Statistics ]=============================
|                                                                             |
|  Number of variables:         69608                                         |
|  Number of clauses:          118081                                         |
|  Parse time:                   0.03 s                                       |
|                                                                             |
============================[ Search Statistics ]==============================
| Conflicts |          ORIGINAL         |          LEARNT          | Progress |
|           |    Vars  Clauses Literals |    Limit  Clauses Lit/Cl |          |
===============================================================================
===============================================================================
restarts              : 1
conflicts             : 2              (60 /sec)
decisions             : 424            (0.00 % random) (12702 /sec)
propagations          : 19103          (572272 /sec)
conflict literals     : 1              (0.00 % deleted)
Memory used           : 15.36 MB
CPU time              : 0.033381 s

UNSATISFIABLE
